data/lp_files/q3/73_8.lp
\ Model foo
\ LP format - for model browsing. Use MPS format to capture full model detail.
Minimize
  z
Subject To
 allocateEach[1]: x[1,1] + x[2,1] + x[3,1] + x[4,1] = 1
 allocateEach[2]: x[1,2] + x[2,2] + x[3,2] + x[4,2] = 1
 allocateEach[3]: x[1,3] + x[2,3] + x[3,3] + x[4,3] = 1
 allocateEach[4]: x[1,4] + x[2,4] + x[3,4] + x[4,4] = 1
 allocateEach[5]: x[1,5] + x[2,5] + x[3,5] + x[4,5] = 1
 allocateEach[6]: x[1,6] + x[2,6] + x[3,6] + x[4,6] = 1
 allocateEach[7]: x[1,7] + x[2,7] + x[3,7] + x[4,7] = 1
 allocateEach[8]: x[1,8] + x[2,8] + x[3,8] + x[4,8] = 1
 allocateEach[9]: x[1,9] + x[2,9] + x[3,9] + x[4,9] = 1
 allocateEach[10]: x[1,10] + x[2,10] + x[3,10] + x[4,10] = 1
 allocateEach[11]: x[1,11] + x[2,11] + x[3,11] + x[4,11] = 1
 allocateEach[12]: x[1,12] + x[2,12] + x[3,12] + x[4,12] = 1
 allocateEach[13]: x[1,13] + x[2,13] + x[3,13] + x[4,13] = 1
 allocateAllCash: cashProportion[1] + cashProportion[2] + cashProportion[3]
   + cashProportion[4] = 1
 findWorstP[1,2]: z + 0.1084848731405015 cashProportion[1]
   - 0.1084848731405015 cashProportion[2] + 0.00162727309710752 x[1,1]
   + 0.0678301669310985 x[1,2] + 0.0537135728136908 x[1,3]
   + 0.0987483557761415 x[1,4] + 0.0620397868272243 x[1,5]
   + 0.1333550303079614 x[1,6] + 0.1028707809554805 x[1,7]
   + 0.00252227330051666 x[1,8] + 0.0227818233595053 x[1,9]
   + 0.0899475204426183 x[1,10] + 0.0488046323040831 x[1,11]
   + 0.1239710887813081 x[1,12] + 0.0833028219627626 x[1,13]
   - 0.00162727309710752 x[2,1] - 0.0678301669310985 x[2,2]
   - 0.0537135728136908 x[2,3] - 0.0987483557761415 x[2,4]
   - 0.0620397868272243 x[2,5] - 0.1333550303079614 x[2,6]
   - 0.1028707809554805 x[2,7] - 0.00252227330051666 x[2,8]
   - 0.0227818233595053 x[2,9] - 0.0899475204426183 x[2,10]
   - 0.0488046323040831 x[2,11] - 0.1239710887813081 x[2,12]
   - 0.0833028219627626 x[2,13] >= 0
 findWorstP[1,3]: z + 0.1084848731405015 cashProportion[1]
   - 0.1084848731405015 cashProportion[3] + 0.00162727309710752 x[1,1]
   + 0.0678301669310985 x[1,2] + 0.0537135728136908 x[1,3]
   + 0.0987483557761415 x[1,4] + 0.0620397868272243 x[1,5]
   + 0.1333550303079614 x[1,6] + 0.1028707809554805 x[1,7]
   + 0.00252227330051666 x[1,8] + 0.0227818233595053 x[1,9]
   + 0.0899475204426183 x[1,10] + 0.0488046323040831 x[1,11]
   + 0.1239710887813081 x[1,12] + 0.0833028219627626 x[1,13]
   - 0.00162727309710752 x[3,1] - 0.0678301669310985 x[3,2]
   - 0.0537135728136908 x[3,3] - 0.0987483557761415 x[3,4]
   - 0.0620397868272243 x[3,5] - 0.1333550303079614 x[3,6]
   - 0.1028707809554805 x[3,7] - 0.00252227330051666 x[3,8]
   - 0.0227818233595053 x[3,9] - 0.0899475204426183 x[3,10]
   - 0.0488046323040831 x[3,11] - 0.1239710887813081 x[3,12]
   - 0.0833028219627626 x[3,13] >= 0
 findWorstP[1,4]: z + 0.1084848731405015 cashProportion[1]
   - 0.1084848731405015 cashProportion[4] + 0.00162727309710752 x[1,1]
   + 0.0678301669310985 x[1,2] + 0.0537135728136908 x[1,3]
   + 0.0987483557761415 x[1,4] + 0.0620397868272243 x[1,5]
   + 0.1333550303079614 x[1,6] + 0.1028707809554805 x[1,7]
   + 0.00252227330051666 x[1,8] + 0.0227818233595053 x[1,9]
   + 0.0899475204426183 x[1,10] + 0.0488046323040831 x[1,11]
   + 0.1239710887813081 x[1,12] + 0.0833028219627626 x[1,13]
   - 0.00162727309710752 x[4,1] - 0.0678301669310985 x[4,2]
   - 0.0537135728136908 x[4,3] - 0.0987483557761415 x[4,4]
   - 0.0620397868272243 x[4,5] - 0.1333550303079614 x[4,6]
   - 0.1028707809554805 x[4,7] - 0.00252227330051666 x[4,8]
   - 0.0227818233595053 x[4,9] - 0.0899475204426183 x[4,10]
   - 0.0488046323040831 x[4,11] - 0.1239710887813081 x[4,12]
   - 0.0833028219627626 x[4,13] >= 0
 findWorstP[2,1]: z - 0.1344854251420503 cashProportion[1]
   + 0.1344854251420503 cashProportion[2] - 0.113673805601318 x[1,1]
   - 0.00154658238913358 x[1,2] - 0.0749588138385503 x[1,3]
   - 0.0289143664055408 x[1,4] - 0.1280133140570891 x[1,5]
   - 0.0200383283461655 x[1,6] - 0.0929630501294422 x[1,7]
   - 0.0105571058736509 x[1,8] - 0.1156574656221632 x[1,9]
   - 0.1087314662273476 x[1,10] - 0.00492552869582759 x[1,11]
   - 0.0646370574588979 x[1,12] - 0.1008976902128232 x[1,13]
   + 0.113673805601318 x[2,1] + 0.00154658238913358 x[2,2]
   + 0.0749588138385503 x[2,3] + 0.0289143664055408 x[2,4]
   + 0.1280133140570891 x[2,5] + 0.0200383283461655 x[2,6]
   + 0.0929630501294422 x[2,7] + 0.0105571058736509 x[2,8]
   + 0.1156574656221632 x[2,9] + 0.1087314662273476 x[2,10]
   + 0.00492552869582759 x[2,11] + 0.0646370574588979 x[2,12]
   + 0.1008976902128232 x[2,13] >= 0
 findWorstP[2,3]: z + 0.1344854251420503 cashProportion[2]
   - 0.1344854251420503 cashProportion[3] + 0.113673805601318 x[2,1]
   + 0.00154658238913358 x[2,2] + 0.0749588138385503 x[2,3]
   + 0.0289143664055408 x[2,4] + 0.1280133140570891 x[2,5]
   + 0.0200383283461655 x[2,6] + 0.0929630501294422 x[2,7]
   + 0.0105571058736509 x[2,8] + 0.1156574656221632 x[2,9]
   + 0.1087314662273476 x[2,10] + 0.00492552869582759 x[2,11]
   + 0.0646370574588979 x[2,12] + 0.1008976902128232 x[2,13]
   - 0.113673805601318 x[3,1] - 0.00154658238913358 x[3,2]
   - 0.0749588138385503 x[3,3] - 0.0289143664055408 x[3,4]
   - 0.1280133140570891 x[3,5] - 0.0200383283461655 x[3,6]
   - 0.0929630501294422 x[3,7] - 0.0105571058736509 x[3,8]
   - 0.1156574656221632 x[3,9] - 0.1087314662273476 x[3,10]
   - 0.00492552869582759 x[3,11] - 0.0646370574588979 x[3,12]
   - 0.1008976902128232 x[3,13] >= 0
 findWorstP[2,4]: z + 0.1344854251420503 cashProportion[2]
   - 0.1344854251420503 cashProportion[4] + 0.113673805601318 x[2,1]
   + 0.00154658238913358 x[2,2] + 0.0749588138385503 x[2,3]
   + 0.0289143664055408 x[2,4] + 0.1280133140570891 x[2,5]
   + 0.0200383283461655 x[2,6] + 0.0929630501294422 x[2,7]
   + 0.0105571058736509 x[2,8] + 0.1156574656221632 x[2,9]
   + 0.1087314662273476 x[2,10] + 0.00492552869582759 x[2,11]
   + 0.0646370574588979 x[2,12] + 0.1008976902128232 x[2,13]
   - 0.113673805601318 x[4,1] - 0.00154658238913358 x[4,2]
   - 0.0749588138385503 x[4,3] - 0.0289143664055408 x[4,4]
   - 0.1280133140570891 x[4,5] - 0.0200383283461655 x[4,6]
   - 0.0929630501294422 x[4,7] - 0.0105571058736509 x[4,8]
   - 0.1156574656221632 x[4,9] - 0.1087314662273476 x[4,10]
   - 0.00492552869582759 x[4,11] - 0.0646370574588979 x[4,12]
   - 0.1008976902128232 x[4,13] >= 0
 findWorstP[3,1]: z - 0.119379821825616 cashProportion[1]
   + 0.119379821825616 cashProportion[3] - 0.0578096787190545 x[1,1]
   - 0.1128736215361199 x[1,2] - 0.0289794517481683 x[1,3]
   - 0.00570038649217316 x[1,4] - 0.1273931923656604 x[1,5]
   - 0.00831182 x[1,6] - 0.0604808022324027 x[1,7]
   - 0.0142211212749765 x[1,8] - 0.1488069479056303 x[1,9]
   - 0.1424798173488726 x[1,10] - 0.0753435900496919 x[1,11]
   - 0.0225030964141286 x[1,12] - 0.0757166519928969 x[1,13]
   + 0.0578096787190545 x[3,1] + 0.1128736215361199 x[3,2]
   + 0.0289794517481683 x[3,3] + 0.00570038649217316 x[3,4]
   + 0.1273931923656604 x[3,5] + 0.00831182 x[3,6]
   + 0.0604808022324027 x[3,7] + 0.0142211212749765 x[3,8]
   + 0.1488069479056303 x[3,9] + 0.1424798173488726 x[3,10]
   + 0.0753435900496919 x[3,11] + 0.0225030964141286 x[3,12]
   + 0.0757166519928969 x[3,13] >= 0
 findWorstP[3,2]: z - 0.119379821825616 cashProportion[2]
   + 0.119379821825616 cashProportion[3] - 0.0578096787190545 x[2,1]
   - 0.1128736215361199 x[2,2] - 0.0289794517481683 x[2,3]
   - 0.00570038649217316 x[2,4] - 0.1273931923656604 x[2,5]
   - 0.00831182 x[2,6] - 0.0604808022324027 x[2,7]
   - 0.0142211212749765 x[2,8] - 0.1488069479056303 x[2,9]
   - 0.1424798173488726 x[2,10] - 0.0753435900496919 x[2,11]
   - 0.0225030964141286 x[2,12] - 0.0757166519928969 x[2,13]
   + 0.0578096787190545 x[3,1] + 0.1128736215361199 x[3,2]
   + 0.0289794517481683 x[3,3] + 0.00570038649217316 x[3,4]
   + 0.1273931923656604 x[3,5] + 0.00831182 x[3,6]
   + 0.0604808022324027 x[3,7] + 0.0142211212749765 x[3,8]
   + 0.1488069479056303 x[3,9] + 0.1424798173488726 x[3,10]
   + 0.0753435900496919 x[3,11] + 0.0225030964141286 x[3,12]
   + 0.0757166519928969 x[3,13] >= 0
 findWorstP[3,4]: z + 0.119379821825616 cashProportion[3]
   - 0.119379821825616 cashProportion[4] + 0.0578096787190545 x[3,1]
   + 0.1128736215361199 x[3,2] + 0.0289794517481683 x[3,3]
   + 0.00570038649217316 x[3,4] + 0.1273931923656604 x[3,5]
   + 0.00831182 x[3,6] + 0.0604808022324027 x[3,7]
   + 0.0142211212749765 x[3,8] + 0.1488069479056303 x[3,9]
   + 0.1424798173488726 x[3,10] + 0.0753435900496919 x[3,11]
   + 0.0225030964141286 x[3,12] + 0.0757166519928969 x[3,13]
   - 0.0578096787190545 x[4,1] - 0.1128736215361199 x[4,2]
   - 0.0289794517481683 x[4,3] - 0.00570038649217316 x[4,4]
   - 0.1273931923656604 x[4,5] - 0.00831182 x[4,6]
   - 0.0604808022324027 x[4,7] - 0.0142211212749765 x[4,8]
   - 0.1488069479056303 x[4,9] - 0.1424798173488726 x[4,10]
   - 0.0753435900496919 x[4,11] - 0.0225030964141286 x[4,12]
   - 0.0757166519928969 x[4,13] >= 0
 findWorstP[4,1]: z - 0.1105644314224114 cashProportion[1]
   + 0.1105644314224114 cashProportion[4] - 0.0882580573829399 x[1,1]
   - 0.0844021228370833 x[1,2] - 0.00986787550445022 x[1,3]
   - 0.10453866990989 x[1,4] - 0.0515368455967715 x[1,5]
   - 0.1223119022610426 x[1,6] - 0.070084028967881 x[1,7]
   - 0.030764553043286 x[1,8] - 0.0152164298745094 x[1,9]
   - 0.0274614406545414 x[1,10] - 0.0585162253303112 x[1,11]
   - 0.0929432251644646 x[1,12] - 0.1335341920504174 x[1,13]
   + 0.0882580573829399 x[4,1] + 0.0844021228370833 x[4,2]
   + 0.00986787550445022 x[4,3] + 0.10453866990989 x[4,4]
   + 0.0515368455967715 x[4,5] + 0.1223119022610426 x[4,6]
   + 0.070084028967881 x[4,7] + 0.030764553043286 x[4,8]
   + 0.0152164298745094 x[4,9] + 0.0274614406545414 x[4,10]
   + 0.0585162253303112 x[4,11] + 0.0929432251644646 x[4,12]
   + 0.1335341920504174 x[4,13] >= 0
 findWorstP[4,2]: z - 0.1105644314224114 cashProportion[2]
   + 0.1105644314224114 cashProportion[4] - 0.0882580573829399 x[2,1]
   - 0.0844021228370833 x[2,2] - 0.00986787550445022 x[2,3]
   - 0.10453866990989 x[2,4] - 0.0515368455967715 x[2,5]
   - 0.1223119022610426 x[2,6] - 0.070084028967881 x[2,7]
   - 0.030764553043286 x[2,8] - 0.0152164298745094 x[2,9]
   - 0.0274614406545414 x[2,10] - 0.0585162253303112 x[2,11]
   - 0.0929432251644646 x[2,12] - 0.1335341920504174 x[2,13]
   + 0.0882580573829399 x[4,1] + 0.0844021228370833 x[4,2]
   + 0.00986787550445022 x[4,3] + 0.10453866990989 x[4,4]
   + 0.0515368455967715 x[4,5] + 0.1223119022610426 x[4,6]
   + 0.070084028967881 x[4,7] + 0.030764553043286 x[4,8]
   + 0.0152164298745094 x[4,9] + 0.0274614406545414 x[4,10]
   + 0.0585162253303112 x[4,11] + 0.0929432251644646 x[4,12]
   + 0.1335341920504174 x[4,13] >= 0
 findWorstP[4,3]: z - 0.1105644314224114 cashProportion[3]
   + 0.1105644314224114 cashProportion[4] - 0.0882580573829399 x[3,1]
   - 0.0844021228370833 x[3,2] - 0.00986787550445022 x[3,3]
   - 0.10453866990989 x[3,4] - 0.0515368455967715 x[3,5]
   - 0.1223119022610426 x[3,6] - 0.070084028967881 x[3,7]
   - 0.030764553043286 x[3,8] - 0.0152164298745094 x[3,9]
   - 0.0274614406545414 x[3,10] - 0.0585162253303112 x[3,11]
   - 0.0929432251644646 x[3,12] - 0.1335341920504174 x[3,13]
   + 0.0882580573829399 x[4,1] + 0.0844021228370833 x[4,2]
   + 0.00986787550445022 x[4,3] + 0.10453866990989 x[4,4]
   + 0.0515368455967715 x[4,5] + 0.1223119022610426 x[4,6]
   + 0.070084028967881 x[4,7] + 0.030764553043286 x[4,8]
   + 0.0152164298745094 x[4,9] + 0.0274614406545414 x[4,10]
   + 0.0585162253303112 x[4,11] + 0.0929432251644646 x[4,12]
   + 0.1335341920504174 x[4,13] >= 0
Bounds
 z <= 1
 -infinity <= cashProportion[1] <= 1
 -infinity <= cashProportion[2] <= 1
 -infinity <= cashProportion[3] <= 1
 -infinity <= cashProportion[4] <= 1
Binaries
 x[1,1] x[1,2] x[1,3] x[1,4] x[1,5] x[1,6] x[1,7] x[1,8] x[1,9] x[1,10]
 x[1,11] x[1,12] x[1,13] x[2,1] x[2,2] x[2,3] x[2,4] x[2,5] x[2,6] x[2,7]
 x[2,8] x[2,9] x[2,10] x[2,11] x[2,12] x[2,13] x[3,1] x[3,2] x[3,3] x[3,4]
 x[3,5] x[3,6] x[3,7] x[3,8] x[3,9] x[3,10] x[3,11] x[3,12] x[3,13] x[4,1]
 x[4,2] x[4,3] x[4,4] x[4,5] x[4,6] x[4,7] x[4,8] x[4,9] x[4,10] x[4,11]
 x[4,12] x[4,13]
End
