data/mps_files/pEFS/73_8.mps
NAME foo
ROWS
 N  OBJ
 E  allocateEach[1]
 E  allocateEach[2]
 E  allocateEach[3]
 E  allocateEach[4]
 E  allocateEach[5]
 E  allocateEach[6]
 E  allocateEach[7]
 E  allocateEach[8]
 E  allocateEach[9]
 E  allocateEach[10]
 E  allocateEach[11]
 E  allocateEach[12]
 E  allocateEach[13]
 E  allocateAllCash
 G  findWorstP[1,2]
 G  findWorstP[1,3]
 G  findWorstP[1,4]
 G  findWorstP[2,1]
 G  findWorstP[2,3]
 G  findWorstP[2,4]
 G  findWorstP[3,1]
 G  findWorstP[3,2]
 G  findWorstP[3,4]
 G  findWorstP[4,1]
 G  findWorstP[4,2]
 G  findWorstP[4,3]
COLUMNS
    z         OBJ       1
    z         findWorstP[1,2]  1
    z         findWorstP[1,3]  1
    z         findWorstP[1,4]  1
    z         findWorstP[2,1]  1
    z         findWorstP[2,3]  1
    z         findWorstP[2,4]  1
    z         findWorstP[3,1]  1
    z         findWorstP[3,2]  1
    z         findWorstP[3,4]  1
    z         findWorstP[4,1]  1
    z         findWorstP[4,2]  1
    z         findWorstP[4,3]  1
    cashProportion[1]  allocateAllCash  1
    cashProportion[1]  findWorstP[1,2]  1.0848487314050151e-01
    cashProportion[1]  findWorstP[1,3]  1.0848487314050151e-01
    cashProportion[1]  findWorstP[1,4]  1.0848487314050151e-01
    cashProportion[1]  findWorstP[2,1]  -1.3448542514205028e-01
    cashProportion[1]  findWorstP[3,1]  -1.1937982182561598e-01
    cashProportion[1]  findWorstP[4,1]  -1.1056443142241143e-01
    cashProportion[2]  allocateAllCash  1
    cashProportion[2]  findWorstP[1,2]  -1.0848487314050151e-01
    cashProportion[2]  findWorstP[2,1]  1.3448542514205028e-01
    cashProportion[2]  findWorstP[2,3]  1.3448542514205028e-01
    cashProportion[2]  findWorstP[2,4]  1.3448542514205028e-01
    cashProportion[2]  findWorstP[3,2]  -1.1937982182561598e-01
    cashProportion[2]  findWorstP[4,2]  -1.1056443142241143e-01
    cashProportion[3]  allocateAllCash  1
    cashProportion[3]  findWorstP[1,3]  -1.0848487314050151e-01
    cashProportion[3]  findWorstP[2,3]  -1.3448542514205028e-01
    cashProportion[3]  findWorstP[3,1]  1.1937982182561598e-01
    cashProportion[3]  findWorstP[3,2]  1.1937982182561598e-01
    cashProportion[3]  findWorstP[3,4]  1.1937982182561598e-01
    cashProportion[3]  findWorstP[4,3]  -1.1056443142241143e-01
    cashProportion[4]  allocateAllCash  1
    cashProportion[4]  findWorstP[1,4]  -1.0848487314050151e-01
    cashProportion[4]  findWorstP[2,4]  -1.3448542514205028e-01
    cashProportion[4]  findWorstP[3,4]  -1.1937982182561598e-01
    cashProportion[4]  findWorstP[4,1]  1.1056443142241143e-01
    cashProportion[4]  findWorstP[4,2]  1.1056443142241143e-01
    cashProportion[4]  findWorstP[4,3]  1.1056443142241143e-01
    MARKER    'MARKER'                 'INTORG'
    x[1,1]    allocateEach[1]  1
    x[1,1]    findWorstP[1,2]  1.6272730971075222e-03
    x[1,1]    findWorstP[1,3]  1.6272730971075222e-03
    x[1,1]    findWorstP[1,4]  1.6272730971075222e-03
    x[1,1]    findWorstP[2,1]  -1.1367380560131797e-01
    x[1,1]    findWorstP[3,1]  -5.7809678719054527e-02
    x[1,1]    findWorstP[4,1]  -0.0882580573829399
    x[1,2]    allocateEach[2]  1
    x[1,2]    findWorstP[1,2]  6.7830166931098543e-02
    x[1,2]    findWorstP[1,3]  6.7830166931098543e-02
    x[1,2]    findWorstP[1,4]  6.7830166931098543e-02
    x[1,2]    findWorstP[2,1]  -1.5465823891335777e-03
    x[1,2]    findWorstP[3,1]  -1.1287362153611988e-01
    x[1,2]    findWorstP[4,1]  -8.4402122837083315e-02
    x[1,3]    allocateEach[3]  1
    x[1,3]    findWorstP[1,2]  5.3713572813690796e-02
    x[1,3]    findWorstP[1,3]  5.3713572813690796e-02
    x[1,3]    findWorstP[1,4]  5.3713572813690796e-02
    x[1,3]    findWorstP[2,1]  -7.4958813838550256e-02
    x[1,3]    findWorstP[3,1]  -2.8979451748168274e-02
    x[1,3]    findWorstP[4,1]  -0.00986787550445022
    x[1,4]    allocateEach[4]  1
    x[1,4]    findWorstP[1,2]  9.8748355776141467e-02
    x[1,4]    findWorstP[1,3]  9.8748355776141467e-02
    x[1,4]    findWorstP[1,4]  9.8748355776141467e-02
    x[1,4]    findWorstP[2,1]  -0.0289143664055408
    x[1,4]    findWorstP[3,1]  -5.7003864921731616e-03
    x[1,4]    findWorstP[4,1]  -1.0453866990988998e-01
    x[1,5]    allocateEach[5]  1
    x[1,5]    findWorstP[1,2]  6.2039786827224289e-02
    x[1,5]    findWorstP[1,3]  6.2039786827224289e-02
    x[1,5]    findWorstP[1,4]  6.2039786827224289e-02
    x[1,5]    findWorstP[2,1]  -1.2801331405708907e-01
    x[1,5]    findWorstP[3,1]  -1.2739319236566043e-01
    x[1,5]    findWorstP[4,1]  -5.1536845596771519e-02
    x[1,6]    allocateEach[6]  1
    x[1,6]    findWorstP[1,2]  1.3335503030796145e-01
    x[1,6]    findWorstP[1,3]  1.3335503030796145e-01
    x[1,6]    findWorstP[1,4]  1.3335503030796145e-01
    x[1,6]    findWorstP[2,1]  -2.0038328346165486e-02
    x[1,6]    findWorstP[3,1]  -8.3118200946085113e-03
    x[1,6]    findWorstP[4,1]  -1.2231190226104263e-01
    x[1,7]    allocateEach[7]  1
    x[1,7]    findWorstP[1,2]  1.0287078095548054e-01
    x[1,7]    findWorstP[1,3]  1.0287078095548054e-01
    x[1,7]    findWorstP[1,4]  1.0287078095548054e-01
    x[1,7]    findWorstP[2,1]  -9.2963050129442240e-02
    x[1,7]    findWorstP[3,1]  -6.0480802232402681e-02
    x[1,7]    findWorstP[4,1]  -7.0084028967881032e-02
    x[1,8]    allocateEach[8]  1
    x[1,8]    findWorstP[1,2]  2.5222733005166591e-03
    x[1,8]    findWorstP[1,3]  2.5222733005166591e-03
    x[1,8]    findWorstP[1,4]  2.5222733005166591e-03
    x[1,8]    findWorstP[2,1]  -1.0557105873650942e-02
    x[1,8]    findWorstP[3,1]  -0.0142211212749765
    x[1,8]    findWorstP[4,1]  -3.0764553043285976e-02
    x[1,9]    allocateEach[9]  1
    x[1,9]    findWorstP[1,2]  2.2781823359505314e-02
    x[1,9]    findWorstP[1,3]  2.2781823359505314e-02
    x[1,9]    findWorstP[1,4]  2.2781823359505314e-02
    x[1,9]    findWorstP[2,1]  -1.1565746562216320e-01
    x[1,9]    findWorstP[3,1]  -1.4880694790563029e-01
    x[1,9]    findWorstP[4,1]  -1.5216429874509371e-02
    x[1,10]   allocateEach[10]  1
    x[1,10]   findWorstP[1,2]  8.9947520442618292e-02
    x[1,10]   findWorstP[1,3]  8.9947520442618292e-02
    x[1,10]   findWorstP[1,4]  8.9947520442618292e-02
    x[1,10]   findWorstP[2,1]  -1.0873146622734763e-01
    x[1,10]   findWorstP[3,1]  -1.4247981734887263e-01
    x[1,10]   findWorstP[4,1]  -2.7461440654541432e-02
    x[1,11]   allocateEach[11]  1
    x[1,11]   findWorstP[1,2]  4.8804632304083106e-02
    x[1,11]   findWorstP[1,3]  4.8804632304083106e-02
    x[1,11]   findWorstP[1,4]  4.8804632304083106e-02
    x[1,11]   findWorstP[2,1]  -0.00492552869582759
    x[1,11]   findWorstP[3,1]  -7.5343590049691864e-02
    x[1,11]   findWorstP[4,1]  -5.8516225330311242e-02
    x[1,12]   allocateEach[12]  1
    x[1,12]   findWorstP[1,2]  1.2397108878130807e-01
    x[1,12]   findWorstP[1,3]  1.2397108878130807e-01
    x[1,12]   findWorstP[1,4]  1.2397108878130807e-01
    x[1,12]   findWorstP[2,1]  -0.0646370574588979
    x[1,12]   findWorstP[3,1]  -2.2503096414128607e-02
    x[1,12]   findWorstP[4,1]  -0.0929432251644646
    x[1,13]   allocateEach[13]  1
    x[1,13]   findWorstP[1,2]  8.3302821962762563e-02
    x[1,13]   findWorstP[1,3]  8.3302821962762563e-02
    x[1,13]   findWorstP[1,4]  8.3302821962762563e-02
    x[1,13]   findWorstP[2,1]  -1.0089769021282319e-01
    x[1,13]   findWorstP[3,1]  -7.5716651992896913e-02
    x[1,13]   findWorstP[4,1]  -1.3353419205041739e-01
    x[2,1]    allocateEach[1]  1
    x[2,1]    findWorstP[1,2]  -1.6272730971075222e-03
    x[2,1]    findWorstP[2,1]  1.1367380560131797e-01
    x[2,1]    findWorstP[2,3]  1.1367380560131797e-01
    x[2,1]    findWorstP[2,4]  1.1367380560131797e-01
    x[2,1]    findWorstP[3,2]  -5.7809678719054527e-02
    x[2,1]    findWorstP[4,2]  -0.0882580573829399
    x[2,2]    allocateEach[2]  1
    x[2,2]    findWorstP[1,2]  -6.7830166931098543e-02
    x[2,2]    findWorstP[2,1]  1.5465823891335777e-03
    x[2,2]    findWorstP[2,3]  1.5465823891335777e-03
    x[2,2]    findWorstP[2,4]  1.5465823891335777e-03
    x[2,2]    findWorstP[3,2]  -1.1287362153611988e-01
    x[2,2]    findWorstP[4,2]  -8.4402122837083315e-02
    x[2,3]    allocateEach[3]  1
    x[2,3]    findWorstP[1,2]  -5.3713572813690796e-02
    x[2,3]    findWorstP[2,1]  7.4958813838550256e-02
    x[2,3]    findWorstP[2,3]  7.4958813838550256e-02
    x[2,3]    findWorstP[2,4]  7.4958813838550256e-02
    x[2,3]    findWorstP[3,2]  -2.8979451748168274e-02
    x[2,3]    findWorstP[4,2]  -0.00986787550445022
    x[2,4]    allocateEach[4]  1
    x[2,4]    findWorstP[1,2]  -9.8748355776141467e-02
    x[2,4]    findWorstP[2,1]  0.0289143664055408
    x[2,4]    findWorstP[2,3]  0.0289143664055408
    x[2,4]    findWorstP[2,4]  0.0289143664055408
    x[2,4]    findWorstP[3,2]  -5.7003864921731616e-03
    x[2,4]    findWorstP[4,2]  -1.0453866990988998e-01
    x[2,5]    allocateEach[5]  1
    x[2,5]    findWorstP[1,2]  -6.2039786827224289e-02
    x[2,5]    findWorstP[2,1]  1.2801331405708907e-01
    x[2,5]    findWorstP[2,3]  1.2801331405708907e-01
    x[2,5]    findWorstP[2,4]  1.2801331405708907e-01
    x[2,5]    findWorstP[3,2]  -1.2739319236566043e-01
    x[2,5]    findWorstP[4,2]  -5.1536845596771519e-02
    x[2,6]    allocateEach[6]  1
    x[2,6]    findWorstP[1,2]  -1.3335503030796145e-01
    x[2,6]    findWorstP[2,1]  2.0038328346165486e-02
    x[2,6]    findWorstP[2,3]  2.0038328346165486e-02
    x[2,6]    findWorstP[2,4]  2.0038328346165486e-02
    x[2,6]    findWorstP[3,2]  -8.3118200946085113e-03
    x[2,6]    findWorstP[4,2]  -1.2231190226104263e-01
    x[2,7]    allocateEach[7]  1
    x[2,7]    findWorstP[1,2]  -1.0287078095548054e-01
    x[2,7]    findWorstP[2,1]  9.2963050129442240e-02
    x[2,7]    findWorstP[2,3]  9.2963050129442240e-02
    x[2,7]    findWorstP[2,4]  9.2963050129442240e-02
    x[2,7]    findWorstP[3,2]  -6.0480802232402681e-02
    x[2,7]    findWorstP[4,2]  -7.0084028967881032e-02
    x[2,8]    allocateEach[8]  1
    x[2,8]    findWorstP[1,2]  -2.5222733005166591e-03
    x[2,8]    findWorstP[2,1]  1.0557105873650942e-02
    x[2,8]    findWorstP[2,3]  1.0557105873650942e-02
    x[2,8]    findWorstP[2,4]  1.0557105873650942e-02
    x[2,8]    findWorstP[3,2]  -0.0142211212749765
    x[2,8]    findWorstP[4,2]  -3.0764553043285976e-02
    x[2,9]    allocateEach[9]  1
    x[2,9]    findWorstP[1,2]  -2.2781823359505314e-02
    x[2,9]    findWorstP[2,1]  1.1565746562216320e-01
    x[2,9]    findWorstP[2,3]  1.1565746562216320e-01
    x[2,9]    findWorstP[2,4]  1.1565746562216320e-01
    x[2,9]    findWorstP[3,2]  -1.4880694790563029e-01
    x[2,9]    findWorstP[4,2]  -1.5216429874509371e-02
    x[2,10]   allocateEach[10]  1
    x[2,10]   findWorstP[1,2]  -8.9947520442618292e-02
    x[2,10]   findWorstP[2,1]  1.0873146622734763e-01
    x[2,10]   findWorstP[2,3]  1.0873146622734763e-01
    x[2,10]   findWorstP[2,4]  1.0873146622734763e-01
    x[2,10]   findWorstP[3,2]  -1.4247981734887263e-01
    x[2,10]   findWorstP[4,2]  -2.7461440654541432e-02
    x[2,11]   allocateEach[11]  1
    x[2,11]   findWorstP[1,2]  -4.8804632304083106e-02
    x[2,11]   findWorstP[2,1]  0.00492552869582759
    x[2,11]   findWorstP[2,3]  0.00492552869582759
    x[2,11]   findWorstP[2,4]  0.00492552869582759
    x[2,11]   findWorstP[3,2]  -7.5343590049691864e-02
    x[2,11]   findWorstP[4,2]  -5.8516225330311242e-02
    x[2,12]   allocateEach[12]  1
    x[2,12]   findWorstP[1,2]  -1.2397108878130807e-01
    x[2,12]   findWorstP[2,1]  0.0646370574588979
    x[2,12]   findWorstP[2,3]  0.0646370574588979
    x[2,12]   findWorstP[2,4]  0.0646370574588979
    x[2,12]   findWorstP[3,2]  -2.2503096414128607e-02
    x[2,12]   findWorstP[4,2]  -0.0929432251644646
    x[2,13]   allocateEach[13]  1
    x[2,13]   findWorstP[1,2]  -8.3302821962762563e-02
    x[2,13]   findWorstP[2,1]  1.0089769021282319e-01
    x[2,13]   findWorstP[2,3]  1.0089769021282319e-01
    x[2,13]   findWorstP[2,4]  1.0089769021282319e-01
    x[2,13]   findWorstP[3,2]  -7.5716651992896913e-02
    x[2,13]   findWorstP[4,2]  -1.3353419205041739e-01
    x[3,1]    allocateEach[1]  1
    x[3,1]    findWorstP[1,3]  -1.6272730971075222e-03
    x[3,1]    findWorstP[2,3]  -1.1367380560131797e-01
    x[3,1]    findWorstP[3,1]  5.7809678719054527e-02
    x[3,1]    findWorstP[3,2]  5.7809678719054527e-02
    x[3,1]    findWorstP[3,4]  5.7809678719054527e-02
    x[3,1]    findWorstP[4,3]  -0.0882580573829399
    x[3,2]    allocateEach[2]  1
    x[3,2]    findWorstP[1,3]  -6.7830166931098543e-02
    x[3,2]    findWorstP[2,3]  -1.5465823891335777e-03
    x[3,2]    findWorstP[3,1]  1.1287362153611988e-01
    x[3,2]    findWorstP[3,2]  1.1287362153611988e-01
    x[3,2]    findWorstP[3,4]  1.1287362153611988e-01
    x[3,2]    findWorstP[4,3]  -8.4402122837083315e-02
    x[3,3]    allocateEach[3]  1
    x[3,3]    findWorstP[1,3]  -5.3713572813690796e-02
    x[3,3]    findWorstP[2,3]  -7.4958813838550256e-02
    x[3,3]    findWorstP[3,1]  2.8979451748168274e-02
    x[3,3]    findWorstP[3,2]  2.8979451748168274e-02
    x[3,3]    findWorstP[3,4]  2.8979451748168274e-02
    x[3,3]    findWorstP[4,3]  -0.00986787550445022
    x[3,4]    allocateEach[4]  1
    x[3,4]    findWorstP[1,3]  -9.8748355776141467e-02
    x[3,4]    findWorstP[2,3]  -0.0289143664055408
    x[3,4]    findWorstP[3,1]  5.7003864921731616e-03
    x[3,4]    findWorstP[3,2]  5.7003864921731616e-03
    x[3,4]    findWorstP[3,4]  5.7003864921731616e-03
    x[3,4]    findWorstP[4,3]  -1.0453866990988998e-01
    x[3,5]    allocateEach[5]  1
    x[3,5]    findWorstP[1,3]  -6.2039786827224289e-02
    x[3,5]    findWorstP[2,3]  -1.2801331405708907e-01
    x[3,5]    findWorstP[3,1]  1.2739319236566043e-01
    x[3,5]    findWorstP[3,2]  1.2739319236566043e-01
    x[3,5]    findWorstP[3,4]  1.2739319236566043e-01
    x[3,5]    findWorstP[4,3]  -5.1536845596771519e-02
    x[3,6]    allocateEach[6]  1
    x[3,6]    findWorstP[1,3]  -1.3335503030796145e-01
    x[3,6]    findWorstP[2,3]  -2.0038328346165486e-02
    x[3,6]    findWorstP[3,1]  8.3118200946085113e-03
    x[3,6]    findWorstP[3,2]  8.3118200946085113e-03
    x[3,6]    findWorstP[3,4]  8.3118200946085113e-03
    x[3,6]    findWorstP[4,3]  -1.2231190226104263e-01
    x[3,7]    allocateEach[7]  1
    x[3,7]    findWorstP[1,3]  -1.0287078095548054e-01
    x[3,7]    findWorstP[2,3]  -9.2963050129442240e-02
    x[3,7]    findWorstP[3,1]  6.0480802232402681e-02
    x[3,7]    findWorstP[3,2]  6.0480802232402681e-02
    x[3,7]    findWorstP[3,4]  6.0480802232402681e-02
    x[3,7]    findWorstP[4,3]  -7.0084028967881032e-02
    x[3,8]    allocateEach[8]  1
    x[3,8]    findWorstP[1,3]  -2.5222733005166591e-03
    x[3,8]    findWorstP[2,3]  -1.0557105873650942e-02
    x[3,8]    findWorstP[3,1]  0.0142211212749765
    x[3,8]    findWorstP[3,2]  0.0142211212749765
    x[3,8]    findWorstP[3,4]  0.0142211212749765
    x[3,8]    findWorstP[4,3]  -3.0764553043285976e-02
    x[3,9]    allocateEach[9]  1
    x[3,9]    findWorstP[1,3]  -2.2781823359505314e-02
    x[3,9]    findWorstP[2,3]  -1.1565746562216320e-01
    x[3,9]    findWorstP[3,1]  1.4880694790563029e-01
    x[3,9]    findWorstP[3,2]  1.4880694790563029e-01
    x[3,9]    findWorstP[3,4]  1.4880694790563029e-01
    x[3,9]    findWorstP[4,3]  -1.5216429874509371e-02
    x[3,10]   allocateEach[10]  1
    x[3,10]   findWorstP[1,3]  -8.9947520442618292e-02
    x[3,10]   findWorstP[2,3]  -1.0873146622734763e-01
    x[3,10]   findWorstP[3,1]  1.4247981734887263e-01
    x[3,10]   findWorstP[3,2]  1.4247981734887263e-01
    x[3,10]   findWorstP[3,4]  1.4247981734887263e-01
    x[3,10]   findWorstP[4,3]  -2.7461440654541432e-02
    x[3,11]   allocateEach[11]  1
    x[3,11]   findWorstP[1,3]  -4.8804632304083106e-02
    x[3,11]   findWorstP[2,3]  -0.00492552869582759
    x[3,11]   findWorstP[3,1]  7.5343590049691864e-02
    x[3,11]   findWorstP[3,2]  7.5343590049691864e-02
    x[3,11]   findWorstP[3,4]  7.5343590049691864e-02
    x[3,11]   findWorstP[4,3]  -5.8516225330311242e-02
    x[3,12]   allocateEach[12]  1
    x[3,12]   findWorstP[1,3]  -1.2397108878130807e-01
    x[3,12]   findWorstP[2,3]  -0.0646370574588979
    x[3,12]   findWorstP[3,1]  2.2503096414128607e-02
    x[3,12]   findWorstP[3,2]  2.2503096414128607e-02
    x[3,12]   findWorstP[3,4]  2.2503096414128607e-02
    x[3,12]   findWorstP[4,3]  -0.0929432251644646
    x[3,13]   allocateEach[13]  1
    x[3,13]   findWorstP[1,3]  -8.3302821962762563e-02
    x[3,13]   findWorstP[2,3]  -1.0089769021282319e-01
    x[3,13]   findWorstP[3,1]  7.5716651992896913e-02
    x[3,13]   findWorstP[3,2]  7.5716651992896913e-02
    x[3,13]   findWorstP[3,4]  7.5716651992896913e-02
    x[3,13]   findWorstP[4,3]  -1.3353419205041739e-01
    x[4,1]    allocateEach[1]  1
    x[4,1]    findWorstP[1,4]  -1.6272730971075222e-03
    x[4,1]    findWorstP[2,4]  -1.1367380560131797e-01
    x[4,1]    findWorstP[3,4]  -5.7809678719054527e-02
    x[4,1]    findWorstP[4,1]  0.0882580573829399
    x[4,1]    findWorstP[4,2]  0.0882580573829399
    x[4,1]    findWorstP[4,3]  0.0882580573829399
    x[4,2]    allocateEach[2]  1
    x[4,2]    findWorstP[1,4]  -6.7830166931098543e-02
    x[4,2]    findWorstP[2,4]  -1.5465823891335777e-03
    x[4,2]    findWorstP[3,4]  -1.1287362153611988e-01
    x[4,2]    findWorstP[4,1]  8.4402122837083315e-02
    x[4,2]    findWorstP[4,2]  8.4402122837083315e-02
    x[4,2]    findWorstP[4,3]  8.4402122837083315e-02
    x[4,3]    allocateEach[3]  1
    x[4,3]    findWorstP[1,4]  -5.3713572813690796e-02
    x[4,3]    findWorstP[2,4]  -7.4958813838550256e-02
    x[4,3]    findWorstP[3,4]  -2.8979451748168274e-02
    x[4,3]    findWorstP[4,1]  0.00986787550445022
    x[4,3]    findWorstP[4,2]  0.00986787550445022
    x[4,3]    findWorstP[4,3]  0.00986787550445022
    x[4,4]    allocateEach[4]  1
    x[4,4]    findWorstP[1,4]  -9.8748355776141467e-02
    x[4,4]    findWorstP[2,4]  -0.0289143664055408
    x[4,4]    findWorstP[3,4]  -5.7003864921731616e-03
    x[4,4]    findWorstP[4,1]  1.0453866990988998e-01
    x[4,4]    findWorstP[4,2]  1.0453866990988998e-01
    x[4,4]    findWorstP[4,3]  1.0453866990988998e-01
    x[4,5]    allocateEach[5]  1
    x[4,5]    findWorstP[1,4]  -6.2039786827224289e-02
    x[4,5]    findWorstP[2,4]  -1.2801331405708907e-01
    x[4,5]    findWorstP[3,4]  -1.2739319236566043e-01
    x[4,5]    findWorstP[4,1]  5.1536845596771519e-02
    x[4,5]    findWorstP[4,2]  5.1536845596771519e-02
    x[4,5]    findWorstP[4,3]  5.1536845596771519e-02
    x[4,6]    allocateEach[6]  1
    x[4,6]    findWorstP[1,4]  -1.3335503030796145e-01
    x[4,6]    findWorstP[2,4]  -2.0038328346165486e-02
    x[4,6]    findWorstP[3,4]  -8.3118200946085113e-03
    x[4,6]    findWorstP[4,1]  1.2231190226104263e-01
    x[4,6]    findWorstP[4,2]  1.2231190226104263e-01
    x[4,6]    findWorstP[4,3]  1.2231190226104263e-01
    x[4,7]    allocateEach[7]  1
    x[4,7]    findWorstP[1,4]  -1.0287078095548054e-01
    x[4,7]    findWorstP[2,4]  -9.2963050129442240e-02
    x[4,7]    findWorstP[3,4]  -6.0480802232402681e-02
    x[4,7]    findWorstP[4,1]  7.0084028967881032e-02
    x[4,7]    findWorstP[4,2]  7.0084028967881032e-02
    x[4,7]    findWorstP[4,3]  7.0084028967881032e-02
    x[4,8]    allocateEach[8]  1
    x[4,8]    findWorstP[1,4]  -2.5222733005166591e-03
    x[4,8]    findWorstP[2,4]  -1.0557105873650942e-02
    x[4,8]    findWorstP[3,4]  -0.0142211212749765
    x[4,8]    findWorstP[4,1]  3.0764553043285976e-02
    x[4,8]    findWorstP[4,2]  3.0764553043285976e-02
    x[4,8]    findWorstP[4,3]  3.0764553043285976e-02
    x[4,9]    allocateEach[9]  1
    x[4,9]    findWorstP[1,4]  -2.2781823359505314e-02
    x[4,9]    findWorstP[2,4]  -1.1565746562216320e-01
    x[4,9]    findWorstP[3,4]  -1.4880694790563029e-01
    x[4,9]    findWorstP[4,1]  1.5216429874509371e-02
    x[4,9]    findWorstP[4,2]  1.5216429874509371e-02
    x[4,9]    findWorstP[4,3]  1.5216429874509371e-02
    x[4,10]   allocateEach[10]  1
    x[4,10]   findWorstP[1,4]  -8.9947520442618292e-02
    x[4,10]   findWorstP[2,4]  -1.0873146622734763e-01
    x[4,10]   findWorstP[3,4]  -1.4247981734887263e-01
    x[4,10]   findWorstP[4,1]  2.7461440654541432e-02
    x[4,10]   findWorstP[4,2]  2.7461440654541432e-02
    x[4,10]   findWorstP[4,3]  2.7461440654541432e-02
    x[4,11]   allocateEach[11]  1
    x[4,11]   findWorstP[1,4]  -4.8804632304083106e-02
    x[4,11]   findWorstP[2,4]  -0.00492552869582759
    x[4,11]   findWorstP[3,4]  -7.5343590049691864e-02
    x[4,11]   findWorstP[4,1]  5.8516225330311242e-02
    x[4,11]   findWorstP[4,2]  5.8516225330311242e-02
    x[4,11]   findWorstP[4,3]  5.8516225330311242e-02
    x[4,12]   allocateEach[12]  1
    x[4,12]   findWorstP[1,4]  -1.2397108878130807e-01
    x[4,12]   findWorstP[2,4]  -0.0646370574588979
    x[4,12]   findWorstP[3,4]  -2.2503096414128607e-02
    x[4,12]   findWorstP[4,1]  0.0929432251644646
    x[4,12]   findWorstP[4,2]  0.0929432251644646
    x[4,12]   findWorstP[4,3]  0.0929432251644646
    x[4,13]   allocateEach[13]  1
    x[4,13]   findWorstP[1,4]  -8.3302821962762563e-02
    x[4,13]   findWorstP[2,4]  -1.0089769021282319e-01
    x[4,13]   findWorstP[3,4]  -7.5716651992896913e-02
    x[4,13]   findWorstP[4,1]  1.3353419205041739e-01
    x[4,13]   findWorstP[4,2]  1.3353419205041739e-01
    x[4,13]   findWorstP[4,3]  1.3353419205041739e-01
    MARKER    'MARKER'                 'INTEND'
RHS
    RHS1      allocateEach[1]  1
    RHS1      allocateEach[2]  1
    RHS1      allocateEach[3]  1
    RHS1      allocateEach[4]  1
    RHS1      allocateEach[5]  1
    RHS1      allocateEach[6]  1
    RHS1      allocateEach[7]  1
    RHS1      allocateEach[8]  1
    RHS1      allocateEach[9]  1
    RHS1      allocateEach[10]  1
    RHS1      allocateEach[11]  1
    RHS1      allocateEach[12]  1
    RHS1      allocateEach[13]  1
    RHS1      allocateAllCash  1
BOUNDS
 UP BND1      z         1
 MI BND1      cashProportion[1]
 UP BND1      cashProportion[1]  1
 MI BND1      cashProportion[2]
 UP BND1      cashProportion[2]  1
 MI BND1      cashProportion[3]
 UP BND1      cashProportion[3]  1
 MI BND1      cashProportion[4]
 UP BND1      cashProportion[4]  1
 BV BND1      x[1,1]  
 BV BND1      x[1,2]  
 BV BND1      x[1,3]  
 BV BND1      x[1,4]  
 BV BND1      x[1,5]  
 BV BND1      x[1,6]  
 BV BND1      x[1,7]  
 BV BND1      x[1,8]  
 BV BND1      x[1,9]  
 BV BND1      x[1,10] 
 BV BND1      x[1,11] 
 BV BND1      x[1,12] 
 BV BND1      x[1,13] 
 BV BND1      x[2,1]  
 BV BND1      x[2,2]  
 BV BND1      x[2,3]  
 BV BND1      x[2,4]  
 BV BND1      x[2,5]  
 BV BND1      x[2,6]  
 BV BND1      x[2,7]  
 BV BND1      x[2,8]  
 BV BND1      x[2,9]  
 BV BND1      x[2,10] 
 BV BND1      x[2,11] 
 BV BND1      x[2,12] 
 BV BND1      x[2,13] 
 BV BND1      x[3,1]  
 BV BND1      x[3,2]  
 BV BND1      x[3,3]  
 BV BND1      x[3,4]  
 BV BND1      x[3,5]  
 BV BND1      x[3,6]  
 BV BND1      x[3,7]  
 BV BND1      x[3,8]  
 BV BND1      x[3,9]  
 BV BND1      x[3,10] 
 BV BND1      x[3,11] 
 BV BND1      x[3,12] 
 BV BND1      x[3,13] 
 BV BND1      x[4,1]  
 BV BND1      x[4,2]  
 BV BND1      x[4,3]  
 BV BND1      x[4,4]  
 BV BND1      x[4,5]  
 BV BND1      x[4,6]  
 BV BND1      x[4,7]  
 BV BND1      x[4,8]  
 BV BND1      x[4,9]  
 BV BND1      x[4,10] 
 BV BND1      x[4,11] 
 BV BND1      x[4,12] 
 BV BND1      x[4,13] 
ENDATA
